p cnf 19 41
a 4 15 0
e 1 2 3 5 6 7 8 9 10 11 12 13 14 16 17 18 19 0
3 1 0
3 2 0
-1 -2 -3 0
3 1 -4 0
-3 -1 -4 0
3 -1 4 0
-3 1 4 0
-4 -5 0
4 -5 0
-9 -7 0
-9 8 0
7 -8 9 0
6 9 -10 0
-6 -9 -10 0
6 -9 10 0
-6 9 10 0
-3 10 -11 0
3 -10 -11 0
-3 -10 11 0
3 10 11 0
13 1 0
13 -12 0
-1 12 -13 0
16 -14 0
16 15 0
14 -15 -16 0
13 16 -17 0
-13 -16 -17 0
13 -16 17 0
-13 16 17 0
-18 11 0
-18 17 0
-11 -17 18 0
-19 -5 0
-19 -18 0
5 18 19 0
4 17 -8 -2 0
-19 -11 -1 -2 8 0
9 14 -11 0
-7 1 -2 0
19 0
